4237
4282
4279
4256
4239
4262
4336
4254
4259
4260
4294
4269
4276
4290
4279
4312
4269
4307
4278
4273
4307
4304
4212
4319
4325
4339
4262
4280
4270
4263
4295
4199
4332
4327
4318
4326
4290
4243
4314
4244
4248
4331
4278
4340
4258
4298
4239
4269
4248
4294
4276
4260
4277
4218
4327
4253
4259
4259
4338
4269
4336
4276
4318
4308
4236
4220
4238
4272
4278
4284
4343
4256
4159
4286
4276
4254
4277
4346
4321
4297
4332
4269
4338
4313
4288
4194
4236
4277
4201
4233
4328
4204
4288
4302
4277
4312
4250
4304
4329
4233
